SimulationType        MonteCarlo
NumberOfCycles        10000
PrintEvery            1000
PrintPropertiesEvery  1000

Forcefield            UFF4MOFs

Framework 0
FrameworkName     ABEXEN_clean
UnitCells         2 2 1
ExternalTemperature 273.0

Component 0  MoleculeName             helium
             MoleculeDefinition       TraPPE
             WidomProbability         1.0
             CreateNumberOfMolecules  0
