SimulationType        MonteCarlo
NumberOfCycles        10000
NumberOfInitializationCycles 5000
PrintEvery            1000
PrintPropertiesEvery  1000

Forcefield            UFF4MOFs
ChargeFromChargeEquilibration yes
CutOff                12.8

Framework 0
FrameworkName     ABEXEM_clean
UnitCells         3 3 2
ExternalTemperature 273.0
HeliumVoidFraction  0.368043
ExternalPressure   1e6

Component 0  MoleculeName             CO2
             MoleculeDefinition       TraPPE
             TranslationProbability   0.5
             RotationProbability      0.5
             ReinsertionProbability   0.5
             SwapProbability          1.0
             CreateNumberOfMolecules  0
